1
3
4
6
5
2
7
9
10
11
8
12
13
15
16
18
17
14
20
23
24
21
19
22
25
27
28
30
29
26
32
35
36
33
31
34
37
39
40
42
41
38
44
47
48
45
43
46
49
51
52
54
53
50
55
106
104
107
105
103
100
102
101
56
99
96
57
94
97
98
95
93
90
92
91
58
89
86
59
84
87
88
85
83
80
82
81
60
79
76
61
74
77
78
75
72
69
71
73
62
70
66
63
64
67
68
65
1
